Cost: 425
0-33-23-43-41-42-22-28-2-0
0-7-11-38-10-39-9-0
0-26-12-17-0
0-6-16-49-24-18-32-44-3-0
0-4-45-29-5-47-48-30-0
0-27-13-19-35-8-46-34-0
Cost: 425
0-33-23-43-41-42-22-28-2-0
0-7-11-38-10-39-9-0
0-26-12-17-0
0-6-16-49-24-18-32-44-3-0
0-4-45-29-5-47-48-30-0
0-27-13-19-35-8-46-34-0
Cost: 425
0-33-23-43-41-42-22-28-2-0
0-7-11-38-10-39-9-0
0-26-12-17-0
0-6-16-49-24-18-32-44-3-0
0-4-45-29-5-47-48-30-0
0-27-13-19-35-8-46-34-0
Cost: 425
0-33-23-43-41-42-22-28-2-0
0-7-11-38-10-39-9-0
0-26-12-17-0
0-6-16-49-24-18-32-44-3-0
0-4-45-29-5-47-48-30-0
0-27-13-19-35-8-46-34-0
Cost: 425
0-33-23-43-41-42-22-28-2-0
0-7-11-38-10-39-9-0
0-26-12-17-0
0-6-16-49-24-18-32-44-3-0
0-4-45-29-5-47-48-30-0
0-27-13-19-35-8-46-34-0
Cost: 425
0-33-23-43-41-42-22-28-2-0
0-7-11-38-10-39-9-0
0-26-12-17-0
0-6-16-49-24-18-32-44-3-0
0-4-45-29-5-47-48-30-0
0-27-13-19-35-8-46-34-0
Cost: 425
0-33-23-43-41-42-22-28-2-0
0-7-11-38-10-39-9-0
0-26-12-17-0
0-6-16-49-24-18-32-44-3-0
0-4-45-29-5-47-48-30-0
0-27-13-19-35-8-46-34-0
Cost: 425
0-33-23-43-41-42-22-28-2-0
0-7-11-38-10-39-9-0
0-26-12-17-0
0-6-16-49-24-18-32-44-3-0
0-4-45-29-5-47-48-30-0
0-27-13-19-35-8-46-34-0
Cost: 425
0-33-23-43-41-42-22-28-2-0
0-7-11-38-10-39-9-0
0-26-12-17-0
0-6-16-49-24-18-32-44-3-0
0-4-45-29-5-47-48-30-0
0-27-13-19-35-8-46-34-0
Cost: 425
0-33-23-43-41-42-22-28-2-0
0-7-11-38-10-39-9-0
0-26-12-17-0
0-6-16-49-24-18-32-44-3-0
0-4-45-29-5-47-48-30-0
0-27-13-19-35-8-46-34-0
Cost: 425
0-30-48-47-5-29-45-4-0
0-6-16-49-24-18-32-44-3-0
0-27-13-19-35-8-46-34-0
0-17-12-26-0
0-7-11-38-10-9-40-0
0-2-28-22-42-41-43-23-33-0
Cost: 425
0-30-48-47-5-29-45-4-0
0-6-16-49-24-18-32-44-3-0
0-27-13-19-35-8-46-34-0
0-17-12-26-0
0-7-11-38-10-9-40-0
0-2-28-22-42-41-43-23-33-0
Cost: 425
0-30-48-47-5-29-45-4-0
0-6-16-49-24-18-32-44-3-0
0-27-13-19-35-8-46-34-0
0-17-12-26-0
0-7-11-38-10-9-40-0
0-2-28-22-42-41-43-23-33-0
Cost: 425
0-30-48-47-5-29-45-4-0
0-6-16-49-24-18-32-44-3-0
0-27-13-19-35-8-46-34-0
0-17-12-26-0
0-7-11-38-10-9-40-0
0-2-28-22-42-41-43-23-33-0
Cost: 425
0-30-48-47-5-29-45-4-0
0-6-16-49-24-18-32-44-3-0
0-27-13-19-35-8-46-34-0
0-17-12-26-0
0-7-11-38-10-9-40-0
0-2-28-22-42-41-43-23-33-0
Cost: 425
0-30-48-47-5-29-45-4-0
0-6-16-49-24-18-32-44-3-0
0-27-13-19-35-8-46-34-0
0-17-12-26-0
0-7-11-38-10-9-40-0
0-2-28-22-42-41-43-23-33-0
Cost: 425
0-30-48-47-5-29-45-4-0
0-6-16-49-24-18-32-44-3-0
0-27-13-19-35-8-46-34-0
0-17-12-26-0
0-7-11-38-10-9-40-0
0-2-28-22-42-41-43-23-33-0
Cost: 425
0-30-48-47-5-29-45-4-0
0-6-16-49-24-18-32-44-3-0
0-27-13-19-35-8-46-34-0
0-17-12-26-0
0-7-11-38-10-9-40-0
0-2-28-22-42-41-43-23-33-0
Cost: 425
0-30-48-47-5-29-45-4-0
0-6-16-49-24-18-32-44-3-0
0-27-13-19-35-8-46-34-0
0-17-12-26-0
0-7-11-38-10-9-40-0
0-2-28-22-42-41-43-23-33-0
Cost: 425
0-30-48-47-5-29-45-4-0
0-6-16-49-24-18-32-44-3-0
0-27-13-19-35-8-46-34-0
0-17-12-26-0
0-7-11-38-10-9-40-0
0-2-28-22-42-41-43-23-33-0
Cost: 425
0-30-48-47-5-29-45-4-0
0-6-16-49-24-18-32-44-3-0
0-27-13-19-35-8-46-34-0
0-17-12-26-0
0-7-11-38-10-9-40-0
0-2-28-22-42-41-43-23-33-0
Cost: 425
0-30-48-47-5-29-45-4-0
0-6-16-49-24-18-32-44-3-0
0-27-13-19-35-8-46-34-0
0-17-12-26-0
0-7-11-38-10-9-40-0
0-2-28-22-42-41-43-23-33-0
Cost: 425
0-34-46-8-35-19-13-27-0
0-3-44-32-18-24-49-16-6-0
0-26-12-17-0
0-7-11-38-10-9-40-0
0-33-23-43-41-42-22-28-2-0
0-30-48-47-5-29-45-4-0
Cost: 425
0-30-48-47-5-29-45-4-0
0-6-16-49-24-18-32-44-3-0
0-27-13-19-35-8-46-34-0
0-17-12-26-0
0-7-11-38-10-9-40-0
0-2-28-22-42-41-43-23-33-0
Cost: 425
0-30-48-47-5-29-45-4-0
0-6-16-49-24-18-32-44-3-0
0-27-13-19-35-8-46-34-0
0-17-12-26-0
0-7-11-38-10-9-40-0
0-2-28-22-42-41-43-23-33-0
Cost: 425
0-30-48-47-5-29-45-4-0
0-6-16-49-24-18-32-44-3-0
0-27-13-19-35-8-46-34-0
0-17-12-26-0
0-7-11-38-10-9-40-0
0-2-28-22-42-41-43-23-33-0
Cost: 425
0-6-16-49-24-18-32-44-3-0
0-17-12-26-0
0-4-45-29-5-47-48-30-0
0-33-23-43-41-42-22-28-2-0
0-27-13-19-35-8-46-34-0
0-7-11-38-10-39-9-0
Cost: 426
0-17-12-26-0
0-6-16-49-24-18-32-44-3-0
0-2-28-22-42-41-43-23-33-0
0-34-27-13-19-35-8-46-0
0-30-48-47-5-29-45-4-0
0-40-9-10-38-11-7-0
Cost: 428
0-7-11-38-10-9-40-0
0-46-8-35-19-13-27-34-0
0-17-12-26-0
0-45-29-5-47-48-30-4-0
0-3-44-32-18-24-49-16-6-0
0-2-28-22-42-41-43-23-33-0
Cost: 425
0-2-28-22-42-41-43-23-33-0
0-26-12-17-0
0-27-13-19-35-8-46-34-0
0-4-45-29-5-47-48-30-0
0-9-39-10-38-11-7-0
0-3-44-32-18-24-49-16-6-0
Cost: 425
0-4-45-29-5-47-48-30-0
0-33-23-43-41-42-22-28-2-0
0-3-44-32-18-24-49-16-6-0
0-26-12-17-0
0-9-39-10-38-11-7-0
0-27-13-19-35-8-46-34-0
